\ENCODING=ISO-8859-1
\Problem name: TSP

Minimize
 obj1: 0 x1 + 3.16300631754444 x2 + 23.1142191835974 x3 + 12.1835781435935 x4
       + 15.1076984092917 x5 + 3.96791402374743 x6 + 11.6423815302425 x7
       + 21.6631340520014 x8 + 17.427550845731 x9 + 12.8831708204629 x10
       + 3.16300631754444 x11 + 0 x12 + 20.4701356501402 x13
       + 12.5111131553457 x14 + 13.7995404559298 x15 + 3.20503893443186 x16
       + 9.40128665358883 x17 + 19.1374174577908 x18 + 14.5121922080703 x19
       + 11.1840275817003 x20 + 23.1142191835974 x21 + 20.4701356501402 x22
       + 0 x23 + 19.4971631264383 x24 + 12.2933193688115 x25
       + 19.4578983485129 x26 + 11.6989754243863 x27 + 1.9525412711138 x28
       + 6.7423776673077 x29 + 11.8999088317038 x30 + 12.1835781435935 x31
       + 12.5111131553457 x32 + 19.4971631264383 x33 + 0 x34
       + 7.31201572372588 x35 + 9.30613217544272 x36 + 9.98469289765514 x37
       + 17.5686867719084 x38 + 17.0917414716672 x39 + 8.02740035010142 x40
       + 15.1076984092917 x41 + 13.7995404559298 x42 + 12.2933193688115 x43
       + 7.31201572372588 x44 + 0 x45 + 11.1925900666512 x46
       + 5.92693820987251 x47 + 10.3461668351975 x48 + 11.146985884941 x49
       + 3.05768940307816 x50 + 3.96791402374743 x51 + 3.20503893443186 x52
       + 19.4578983485129 x53 + 9.30613217544272 x54 + 11.1925900666512 x55
       + 0 x56 + 7.82366837010615 x57 + 17.9191228855074 x58
       + 14.1841459972008 x59 + 8.91555152357901 x60 + 11.6423815302425 x61
       + 9.40128665358883 x62 + 11.6989754243863 x63 + 9.98469289765514 x64
       + 5.92693820987251 x65 + 7.82366837010615 x66 + 0 x67
       + 10.1040926780829 x68 + 7.35910010223657 x69 + 2.89588657240467 x70
       + 21.6631340520014 x71 + 19.1374174577908 x72 + 1.9525412711138 x73
       + 17.5686867719084 x74 + 10.3461668351975 x75 + 17.9191228855074 x76
       + 10.1040926780829 x77 + 0 x78 + 6.27886793780959 x79
       + 10.0649022491533 x80 + 17.427550845731 x81 + 14.5121922080703 x82
       + 6.7423776673077 x83 + 17.0917414716672 x84 + 11.146985884941 x85
       + 14.1841459972008 x86 + 7.35910010223657 x87 + 6.27886793780959 x88
       + 0 x89 + 9.12904644157324 x90 + 12.8831708204629 x91
       + 11.1840275817003 x92 + 11.8999088317038 x93 + 8.02740035010142 x94
       + 3.05768940307816 x95 + 8.91555152357901 x96 + 2.89588657240467 x97
       + 10.0649022491533 x98 + 9.12904644157324 x99 + 0 x100 + 0 x101 + 0 x102
       + 0 x103 + 0 x104 + 0 x105 + 0 x106 + 0 x107 + 0 x108 + 0 x109
Subject To
 c1:  x11 + x21 + x31 + x41 + x51 + x61 + x71 + x81 + x91  = 1
 c2:  x2 + x22 + x32 + x42 + x52 + x62 + x72 + x82 + x92  = 1
 c3:  x3 + x13 + x33 + x43 + x53 + x63 + x73 + x83 + x93  = 1
 c4:  x4 + x14 + x24 + x44 + x54 + x64 + x74 + x84 + x94  = 1
 c5:  x5 + x15 + x25 + x35 + x55 + x65 + x75 + x85 + x95  = 1
 c6:  x6 + x16 + x26 + x36 + x46 + x66 + x76 + x86 + x96  = 1
 c7:  x7 + x17 + x27 + x37 + x47 + x57 + x77 + x87 + x97  = 1
 c8:  x8 + x18 + x28 + x38 + x48 + x58 + x68 + x88 + x98  = 1
 c9:  x9 + x19 + x29 + x39 + x49 + x59 + x69 + x79 + x99  = 1
 c10: x10 + x20 + x30 + x40 + x50 + x60 + x70 + x80 + x90  = 1
 c11: x2 + x3 + x4 + x5 + x6 + x7 + x8 + x9 + x10  = 1
 c12: x11 + x13 + x14 + x15 + x16 + x17 + x18 + x19 + x20  = 1
 c13: x21 + x22 + x24 + x25 + x26 + x27 + x28 + x29 + x30  = 1
 c14: x31 + x32 + x33 + x35 + x36 + x37 + x38 + x39 + x40  = 1
 c15: x41 + x42 + x43 + x44 + x46 + x47 + x48 + x49 + x50  = 1
 c16: x51 + x52 + x53 + x54 + x55 + x57 + x58 + x59 + x60  = 1
 c17: x61 + x62 + x63 + x64 + x65 + x66 + x68 + x69 + x70  = 1
 c18: x71 + x72 + x73 + x74 + x75 + x76 + x77 + x79 + x80  = 1
 c19: x81 + x82 + x83 + x84 + x85 + x86 + x87 + x88 + x90  = 1
 c20: x91 + x92 + x93 + x94 + x95 + x96 + x97 + x98 + x99  = 1
Lazy Constraints
 l1:  x101 - x102 + 9 x13 <= 8
 l2:  x101 - x103 + 9 x14 <= 8
 l3:  x101 - x104 + 9 x15 <= 8
 l4:  x101 - x105 + 9 x16 <= 8
 l5:  x101 - x106 + 9 x17 <= 8
 l6:  x101 - x107 + 9 x18 <= 8
 l7:  x101 - x108 + 9 x19 <= 8
 l8:  x101 - x109 + 9 x20 <= 8
 l9:  x102 - x101 + 9 x22 <= 8
 l10: x102 - x103 + 9 x24 <= 8
 l11: x102 - x104 + 9 x25 <= 8
 l12: x102 - x105 + 9 x26 <= 8
 l13: x102 - x106 + 9 x27 <= 8
 l14: x102 - x107 + 9 x28 <= 8
 l15: x102 - x108 + 9 x29 <= 8
 l16: x102 - x109 + 9 x30 <= 8
 l17: x103 - x101 + 9 x32 <= 8
 l18: x103 - x102 + 9 x33 <= 8
 l19: x103 - x104 + 9 x35 <= 8
 l20: x103 - x105 + 9 x36 <= 8
 l21: x103 - x106 + 9 x37 <= 8
 l22: x103 - x107 + 9 x38 <= 8
 l23: x103 - x108 + 9 x39 <= 8
 l24: x103 - x109 + 9 x40 <= 8
 l25: x104 - x101 + 9 x42 <= 8
 l26: x104 - x102 + 9 x43 <= 8
 l27: x104 - x103 + 9 x44 <= 8
 l28: x104 - x105 + 9 x46 <= 8
 l29: x104 - x106 + 9 x47 <= 8
 l30: x104 - x107 + 9 x48 <= 8
 l31: x104 - x108 + 9 x49 <= 8
 l32: x104 - x109 + 9 x50 <= 8
 l33: x105 - x101 + 9 x52 <= 8
 l34: x105 - x102 + 9 x53 <= 8
 l35: x105 - x103 + 9 x54 <= 8
 l36: x105 - x104 + 9 x55 <= 8
 l37: x105 - x106 + 9 x57 <= 8
 l38: x105 - x107 + 9 x58 <= 8
 l39: x105 - x108 + 9 x59 <= 8
 l40: x105 - x109 + 9 x60 <= 8
 l41: x106 - x101 + 9 x62 <= 8
 l42: x106 - x102 + 9 x63 <= 8
 l43: x106 - x103 + 9 x64 <= 8
 l44: x106 - x104 + 9 x65 <= 8
 l45: x106 - x105 + 9 x66 <= 8
 l46: x106 - x107 + 9 x68 <= 8
 l47: x106 - x108 + 9 x69 <= 8
 l48: x106 - x109 + 9 x70 <= 8
 l49: x107 - x101 + 9 x72 <= 8
 l50: x107 - x102 + 9 x73 <= 8
 l51: x107 - x103 + 9 x74 <= 8
 l52: x107 - x104 + 9 x75 <= 8
 l53: x107 - x105 + 9 x76 <= 8
 l54: x107 - x106 + 9 x77 <= 8
 l55: x107 - x108 + 9 x79 <= 8
 l56: x107 - x109 + 9 x80 <= 8
 l57: x108 - x101 + 9 x82 <= 8
 l58: x108 - x102 + 9 x83 <= 8
 l59: x108 - x103 + 9 x84 <= 8
 l60: x108 - x104 + 9 x85 <= 8
 l61: x108 - x105 + 9 x86 <= 8
 l62: x108 - x106 + 9 x87 <= 8
 l63: x108 - x107 + 9 x88 <= 8
 l64: x108 - x109 + 9 x90 <= 8
 l65: x109 - x101 + 9 x92 <= 8
 l66: x109 - x102 + 9 x93 <= 8
 l67: x109 - x103 + 9 x94 <= 8
 l68: x109 - x104 + 9 x95 <= 8
 l69: x109 - x105 + 9 x96 <= 8
 l70: x109 - x106 + 9 x97 <= 8
 l71: x109 - x107 + 9 x98 <= 8
 l72: x109 - x108 + 9 x99 <= 8
Bounds
      x1 = 0
 0 <= x2 <= 1
 0 <= x3 <= 1
 0 <= x4 <= 1
 0 <= x5 <= 1
 0 <= x6 <= 1
 0 <= x7 <= 1
 0 <= x8 <= 1
 0 <= x9 <= 1
 0 <= x10 <= 1
 0 <= x11 <= 1
      x12 = 0
 0 <= x13 <= 1
 0 <= x14 <= 1
 0 <= x15 <= 1
 0 <= x16 <= 1
 0 <= x17 <= 1
 0 <= x18 <= 1
 0 <= x19 <= 1
 0 <= x20 <= 1
 0 <= x21 <= 1
 0 <= x22 <= 1
      x23 = 0
 0 <= x24 <= 1
 0 <= x25 <= 1
 0 <= x26 <= 1
 0 <= x27 <= 1
 0 <= x28 <= 1
 0 <= x29 <= 1
 0 <= x30 <= 1
 0 <= x31 <= 1
 0 <= x32 <= 1
 0 <= x33 <= 1
      x34 = 0
 0 <= x35 <= 1
 0 <= x36 <= 1
 0 <= x37 <= 1
 0 <= x38 <= 1
 0 <= x39 <= 1
 0 <= x40 <= 1
 0 <= x41 <= 1
 0 <= x42 <= 1
 0 <= x43 <= 1
 0 <= x44 <= 1
      x45 = 0
 0 <= x46 <= 1
 0 <= x47 <= 1
 0 <= x48 <= 1
 0 <= x49 <= 1
 0 <= x50 <= 1
 0 <= x51 <= 1
 0 <= x52 <= 1
 0 <= x53 <= 1
 0 <= x54 <= 1
 0 <= x55 <= 1
      x56 = 0
 0 <= x57 <= 1
 0 <= x58 <= 1
 0 <= x59 <= 1
 0 <= x60 <= 1
 0 <= x61 <= 1
 0 <= x62 <= 1
 0 <= x63 <= 1
 0 <= x64 <= 1
 0 <= x65 <= 1
 0 <= x66 <= 1
      x67 = 0
 0 <= x68 <= 1
 0 <= x69 <= 1
 0 <= x70 <= 1
 0 <= x71 <= 1
 0 <= x72 <= 1
 0 <= x73 <= 1
 0 <= x74 <= 1
 0 <= x75 <= 1
 0 <= x76 <= 1
 0 <= x77 <= 1
      x78 = 0
 0 <= x79 <= 1
 0 <= x80 <= 1
 0 <= x81 <= 1
 0 <= x82 <= 1
 0 <= x83 <= 1
 0 <= x84 <= 1
 0 <= x85 <= 1
 0 <= x86 <= 1
 0 <= x87 <= 1
 0 <= x88 <= 1
      x89 = 0
 0 <= x90 <= 1
 0 <= x91 <= 1
 0 <= x92 <= 1
 0 <= x93 <= 1
 0 <= x94 <= 1
 0 <= x95 <= 1
 0 <= x96 <= 1
 0 <= x97 <= 1
 0 <= x98 <= 1
 0 <= x99 <= 1
      x100 = 0
 1 <= x101 <= 9
 1 <= x102 <= 9
 1 <= x103 <= 9
 1 <= x104 <= 9
 1 <= x105 <= 9
 1 <= x106 <= 9
 1 <= x107 <= 9
 1 <= x108 <= 9
 1 <= x109 <= 9
Binaries
 x1  x2  x3  x4  x5  x6  x7  x8  x9  x10  x11  x12  x13  x14  x15  x16  x17 
 x18  x19  x20  x21  x22  x23  x24  x25  x26  x27  x28  x29  x30  x31  x32 
 x33  x34  x35  x36  x37  x38  x39  x40  x41  x42  x43  x44  x45  x46  x47 
 x48  x49  x50  x51  x52  x53  x54  x55  x56  x57  x58  x59  x60  x61  x62 
 x63  x64  x65  x66  x67  x68  x69  x70  x71  x72  x73  x74  x75  x76  x77 
 x78  x79  x80  x81  x82  x83  x84  x85  x86  x87  x88  x89  x90  x91  x92 
 x93  x94  x95  x96  x97  x98  x99  x100 
Generals
 x101  x102  x103  x104  x105  x106  x107  x108  x109 
End
